%chk=DCMb3opted.chk
# opt rb3lyp/6-311g geom=connectivity

Title Card Required

0 1
 C                  0.00000000    0.00000000    0.80616500
 H                 -0.90501500    0.00000000    1.39293400
 H                  0.90501500    0.00000000    1.39293400
 Cl                 0.00000000    1.54571800   -0.22420200
 Cl                 0.00000000   -1.54571800   -0.22420200

 1 2 1.0 3 1.0 4 1.0 5 1.0
 2
 3
 4
 5

