%mem=100GB
%nprocshared=16
%chk=Om.chk
#p opt=calcfc freq rb3lyp/6-31g(d,p) geom=connectivity scf=(maxcycle=500)

DFT opt

0 1
C                  0.46176426    0.10294341    1.53542922
C                  1.53090795   -0.17178316    2.39580644
C                  1.45708827   -1.23170925    3.29639628
C                  0.30774166   -2.02379900    3.35231394
C                 -0.78279882   -1.74350358    2.53052987
C                 -0.70546964   -0.67446434    1.63726811
N                 -1.81406083   -0.26362549    0.82428616
C                 -2.01817249    1.15442281    0.79805200
C                 -3.27928536    1.72416749    0.98658328
C                 -3.39893004    3.10209827    1.14968649
C                 -2.25575502    3.90196511    1.18295664
C                 -1.00004312    3.32872639    0.99435335
C                 -0.85923369    1.95955163    0.73276119
C                  0.43202747    1.22635014    0.55446783
C                  1.39693410    1.43845102   -0.38186309
C                  2.64793924    0.63088151   -0.56834627
C                  2.89473338   -0.78126341   -0.53077938
C                  1.87952483   -1.77131146   -0.44379626
C                  2.18723428   -3.11356122   -0.44048715
C                  3.53141968   -3.54504066   -0.52030932
C                  4.53843441   -2.61761745   -0.65271048
C                  4.25357929   -1.22570789   -0.69293575
C                  5.28550204   -0.28260008   -0.95268471
C                  4.99587524    1.05117159   -1.12820072
C                  3.66829219    1.49178021   -0.96161436
C                  3.11587046    2.86610686   -1.23370159
C                  1.59749347    2.58246005   -1.40050181
C                  0.76223379    3.85782092   -1.46869690
H                  2.42321617    0.44286776    2.34237694
H                  2.29570898   -1.44130884    3.95342827
H                  0.25063155   -2.85315395    4.05085244
H                 -1.68183908   -2.34506035    2.57221795
H                 -4.15202114    1.08458749    1.02416121
H                 -4.38049262    3.54181812    1.29886839
H                 -2.33882578    4.96797789    1.37204087
H                 -0.11258946    3.94336852    1.06872916
H                  3.55765753    3.33239150   -2.12144331
H                  3.27538801    3.55365321   -0.38976801
H                  1.49385557    2.08924792   -2.37945693
H                  0.92787337    4.51382048   -0.61052320
H                  1.06709675    4.41576356   -2.36166604
H                 -0.30742100    3.66011558   -1.55011648
H                  0.84319384   -1.46672553   -0.40061245
H                  5.77562798    1.75783551   -1.39929389
H                  1.38575294   -3.84337970   -0.37783151
H                  5.57252224   -2.93709192   -0.75494423
H                  6.30374492   -0.64542215   -1.06672950
H                  3.76254342   -4.60608962   -0.50073965
C                 -2.49531528   -1.19791839    0.05239220
O                 -2.24665402   -2.39126429    0.07601968
O                 -3.43540047   -0.60132293   -0.70652670
C                 -4.25776360   -1.38635935   -1.64821613
C                 -5.14423813   -0.31191642   -2.28223033
C                 -5.10267991   -2.40843056   -0.88180069
C                 -3.36163441   -2.04247816   -2.70299420
H                 -5.80812926   -0.76531845   -3.02407945
H                 -5.75908627    0.18152163   -1.52407970
H                 -4.53446389    0.44780176   -2.77877915
H                 -4.47356670   -3.16452639   -0.41238676
H                 -5.69630193   -1.90902826   -0.10947586
H                 -5.79368018   -2.90186984   -1.57279316
H                 -2.74197567   -1.28778702   -3.19704481
H                 -2.71361475   -2.79560632   -2.25493704
H                 -3.98560303   -2.52092476   -3.46468707
