%mem=100GB
%nprocshared=16
%chk=Om.chk
#p opt=calcfc freq rb3lyp/6-31g(d,p) geom=connectivity scf=(maxcycle=500)

DFT opt

0 1
C       0.82797637      0.04491593      0.03860963
C       0.57500567     -0.22668404     -1.33529089
C      -0.39549911      0.52928886     -1.99485092
C      -1.02740186      1.59529011     -1.37564706
C      -0.75277040      1.95009387     -0.03956407
C       0.11052696      1.09876563      0.66787548
O       0.41751104      1.56083348      1.95193480
C       1.68890815      1.27823861      2.41020667
C       2.01146359      1.99844445      3.57855149
C       3.06838007      1.56340933      4.30158588
C       3.90812123      0.61319644      3.72178127
C       3.57320264     -0.11987393      2.57914924
C       2.34396279      0.17690694      1.92397852
C       1.81966201     -0.67253371      0.85222769
C       2.22025847     -1.97528114      0.83738591
C       2.57896403     -2.78947626     -0.34573975
C       2.96033930     -2.43720583     -1.66893896
C       3.24648939     -1.09662540     -2.07396202
C       3.88571988     -0.86849409     -3.26411074
C       4.12798963     -1.93167568     -4.18094041
C       3.92242833     -3.22417463     -3.82474576
C       3.41681017     -3.50770176     -2.52787191
C       3.44066278     -4.82827148     -2.07296791
C       2.93506897     -5.14359290     -0.84963592
C       2.55001117     -4.14971045      0.07740083
C       2.18196116     -4.34025083      1.50410312
C       2.39929680     -2.88913055      2.03426263
C       1.55914354     -2.50699760      3.25640062
H       1.01613431     -1.08732902     -1.83513087
H      -0.73141800      0.20620347     -2.97274741
H      -1.75954998      2.20029332     -1.98084650
H      -1.15937014      2.88284467      0.31909036
H       1.39773134      2.82939038      3.85909845
H       3.29397486      2.01572330      5.24014997
H       4.84258536      0.34089689      4.25692169
H       4.19764844     -1.00359882      2.23603847
H       2.88529239     -5.09366583      1.98093970
H       1.15257417     -4.73023284      1.60670936
H       3.54660190     -2.81311243      2.30647827
H       1.95349529     -1.59782478      3.68037135
H       0.51876168     -2.39652441      2.92574200
H       1.57826158     -3.24487236      4.08282477
H       3.12997707     -0.32207637     -1.34404198
H       2.86888474     -6.23197418     -0.55753745
H       4.15686673      0.20158121     -3.53642830
H       4.08029886     -4.09003034     -4.51959892
H       3.88432167     -5.63434664     -2.70854524
H       4.42775838     -1.73363736     -5.18576863
