%mem=100GB
%nprocshared=16
%chk=Sm.chk
#p opt=calcfc freq rb3lyp/6-31g(d,p) geom=connectivity scf=(maxcycle=500)

DFT opt

0 1
C       0.51467704      0.22950382     -0.64365736
C      -0.16310446      0.12401363     -1.87259748
C       0.04918360      1.05068618     -2.85986703
C       0.99722115      2.08797658     -2.69497213
C       1.59515899      2.21647343     -1.44842591
C       1.31328559      1.37193002     -0.34559739
S       1.76685193      1.77064485      1.32327407
C       0.19645080      1.50615985      1.96339963
C      -0.36134466      2.31780402      2.96055710
C      -1.75651945      2.27764558      3.02828018
C      -2.53068663      1.42430056      2.25442612
C      -1.93109952      0.48990492      1.42826701
C      -0.56785829      0.44395690      1.41794719
C       0.19898750     -0.55166238      0.57831155
C       0.74595977     -1.67597268      1.08318910
C       2.01318344     -2.31416206      0.65907564
C       2.99511503     -1.92069890     -0.30286905
C       2.74308392     -1.09780484     -1.43846684
C       3.78017798     -0.40598541     -2.00209103
C       5.08520164     -0.91103540     -1.87803690
C       5.39879956     -1.74768948     -0.89134790
C       4.37130733     -2.17523299     -0.02768655
C       4.76592054     -2.90130760      1.10418137
C       3.77882042     -3.39902158      1.95520306
C       2.43018214     -3.09957875      1.73307726
C       1.36529889     -3.41810743      2.73021034
C       0.30007624     -2.34370808      2.41948697
C      -1.02895503     -3.06988794      2.18020010
H      -0.87919371     -0.66991919     -1.99336864
H      -0.44298398      0.95698982     -3.83053062
H       1.25735458      2.67806035     -3.58237358
H       2.32875684      3.00766057     -1.31150753
H       0.28178055      3.00487783      3.49263193
H      -2.24933666      2.85086054      3.80914500
H      -3.59916088      1.41406950      2.29360472
H      -2.49168273     -0.22627995      0.85595654
H       1.80795134     -3.27111638      3.74586786
H       0.93230173     -4.42318261      2.70095196
H       0.13679748     -1.59049311      3.22189704
H      -0.90785049     -3.52144955      1.15085570
H      -1.25735866     -3.85230846      2.89072772
H      -1.89019836     -2.39391384      2.15147063
H       1.74831671     -0.85040503     -1.77633858
H       4.08240478     -4.04520185      2.76501595
H       3.53971514      0.39725752     -2.69848269
H       6.40572014     -2.18738855     -0.75329868
H       5.84447239     -2.99357199      1.28154423
H       5.94613042     -0.47874554     -2.46538888
