%mem=100GB
%nprocshared=16
%chk=Sm.chk
#p opt=calcfc freq rb3lyp/6-31g(d,p) geom=connectivity scf=(maxcycle=500)

DFT opt

0 1
C       0.99844376      2.16135207     -0.63472847
C       0.72277450      2.27935209     -1.96812183
C       1.86463081      2.34523849     -2.76976283
C       3.16500342      2.62181301     -2.28993087
C       3.33945232      2.79825584     -0.89717567
C       2.27976799      2.40005210     -0.07448214
S       2.39702802      2.38665546      1.65444110
C       1.06231165      3.48319247      1.82904815
C       1.06737485      4.60399898      2.65870905
C      -0.10572942      5.42646069      2.78107918
C      -1.21123082      5.15522768      1.99602795
C      -1.24832419      4.01591462      1.20890787
C      -0.13194802      3.25341327      1.09634352
C      -0.15775275      2.06404498      0.24240781
C      -1.14627083      1.17537259      0.32353088
C      -0.90001100     -0.22431090     -0.02339589
C      -0.67001425     -0.98885943     -1.14436964
C      -0.90512250     -0.59210146     -2.47373286
C      -0.51649714     -1.36623379     -3.52567197
C      -0.04632509     -2.68897314     -3.32957375
C       0.04326961     -3.18593967     -2.00464060
C      -0.26579105     -2.34842493     -0.90953168
C      -0.15601220     -2.88765029      0.38592769
C      -0.64353322     -2.17263286      1.44524757
C      -1.09175541     -0.86385682      1.21115654
C      -1.89361767     -0.05853361      2.20982555
C      -2.25237273      1.16806676      1.36234574
C      -3.61827917      0.96496677      0.71223261
H      -0.30806228      2.16793676     -2.39665108
H       1.72592313      2.16797959     -3.87575045
H       3.99714350      2.79510920     -2.93452858
H       4.31219643      3.06354224     -0.50152157
H       1.99462526      4.92193166      3.12458420
H      -0.16299110      6.36790288      3.33844497
H      -2.10265122      5.75837470      2.09675140
H      -2.15621069      3.79989929      0.61413151
H      -1.30687177      0.09150177      3.15738839
H      -2.84037646     -0.61540603      2.44454690
H      -2.32963696      2.16683411      1.92688368
H      -4.40018827      1.64979281      1.12504967
H      -3.58351109      1.03541818     -0.36803441
H      -4.03985191     -0.01671298      1.04845905
H      -1.35214020      0.40291537     -2.68174942
H      -0.61892910     -2.55915483      2.46953623
H      -0.59695564     -0.95649865     -4.50447723
H       0.35166695     -4.17267715     -1.80505450
H       0.05970180     -3.93033219      0.55099424
H       0.19301394     -3.34900544     -4.12976490
