%mem=100GB
%nprocshared=16
%chk=Sm.chk
#p opt=calcfc freq rb3lyp/6-31g(d,p) geom=connectivity scf=(maxcycle=500)

DFT opt

0 1
C      -0.97225672     -0.48598081     -1.41675266
C      -0.03157522     -0.97960247     -2.31032346
C       0.81566933     -0.15175823     -3.03412819
C       0.78502180      1.23003329     -2.91412087
C      -0.08187964      1.78288713     -1.98958032
C      -0.98096331      0.91312503     -1.26512635
S      -2.15273083      1.87625531     -0.34974183
C      -2.64243296      0.61904734      0.79351349
C      -3.43034298      1.14688286      1.85796303
C      -3.99541768      0.27379855      2.75603160
C      -3.72744384     -1.12317263      2.66834468
C      -3.07506058     -1.58580123      1.51225195
C      -2.54297672     -0.73810185      0.53463532
C      -1.93880968     -1.33809242     -0.69121583
C      -2.47194856     -2.55029160     -1.14272812
C      -2.00541587     -3.63641606     -1.97361485
C      -0.70290322     -4.27258644     -2.00360297
C       0.31630977     -4.12012598     -1.05733609
C       1.26866428     -5.10764826     -0.85834166
C       1.50063135     -6.17233516     -1.72831635
C       0.63304801     -6.24589804     -2.80925667
C      -0.53099646     -5.36095792     -2.89450442
C      -1.49349783     -5.69579097     -3.88307208
C      -2.70665776     -5.08141956     -3.82335437
C      -3.03341017     -4.19011013     -2.74175286
C      -4.36084011     -3.60871651     -2.34165879
C      -3.96477498     -2.90852121     -1.02592909
C      -5.03246418     -1.80854180     -0.87687051
H       0.02150568     -2.04095741     -2.46591057
H       1.52431505     -0.61994511     -3.75311424
H       1.40396560      1.89631152     -3.51385759
H      -0.17134319      2.85924861     -1.88907803
H      -3.63052454      2.22314703      1.95335958
H      -4.62793809      0.60812902      3.55001837
H      -4.03277682     -1.77478388      3.53416817
H      -3.10804689     -2.63263027      1.27106191
H      -5.14167057     -4.34740976     -2.15642738
H      -4.70516830     -2.89785041     -3.12964306
H      -4.11160280     -3.62603516     -0.18902991
H      -6.03693920     -2.23464139     -1.16323104
H      -5.18626202     -1.42851853      0.09516215
H      -4.86771668     -0.98310811     -1.60028798
H       0.22586543     -3.28207495     -0.34127322
H      -3.46532539     -5.23528139     -4.63194485
H       1.81986232     -4.96186870      0.08165251
H       0.79172260     -7.02642693     -3.58655366
H      -1.19275190     -6.38389425     -4.63476695
H       2.30658598     -6.87787642     -1.60189239
