%mem=100GB
%nprocshared=16
%chk=Sm.chk
#p opt=calcfc freq rb3lyp/6-31g(d,p) geom=connectivity scf=(maxcycle=500)

DFT opt

0 1
C      -2.20280777      1.52941952      0.50964375
C      -3.42310158      0.87591400      0.70154177
C      -4.53403208      1.17759100     -0.05993290
C      -4.35545751      2.04979604     -1.13591555
C      -3.20146214      2.80045754     -1.30335805
C      -2.10199953      2.51000468     -0.49855955
S      -0.65479092      3.45474240     -0.66209863
C      -0.41174743      3.65668377      1.02726505
C      -0.14447965      4.97481356      1.34826469
C      -0.02916502      5.21311048      2.71043193
C      -0.22812121      4.18722550      3.67810804
C      -0.57178574      2.90603239      3.33559654
C      -0.62311909      2.63224682      1.98017266
C      -1.03897192      1.35318863      1.38665491
C      -0.14858787      0.34957352      1.35057254
C      -0.04329185     -0.83859142      0.42955694
C      -0.84560143     -1.36401186     -0.63929343
C      -1.65600596     -0.44823322     -1.35695504
C      -2.39086433     -0.86698752     -2.44750349
C      -2.20372999     -2.16861454     -2.88304982
C      -1.34475576     -3.05563869     -2.25225302
C      -0.53665713     -2.63424736     -1.13737127
C       0.42715858     -3.51527015     -0.52732077
C       1.25652980     -2.93109047      0.39664177
C       1.06970117     -1.58817925      0.77738785
C       1.97968336     -0.76716161      1.61978447
C       1.03641242      0.21462587      2.31365404
C       0.51792510     -0.44283659      3.58770294
H      -3.48494810      0.01061244      1.39050973
H      -5.49136199      0.69125481      0.19874415
H      -5.17952915      2.25497388     -1.81173976
H      -3.03835324      3.48301795     -2.16753261
H      -0.09570156      5.75819323      0.58026689
H       0.07669024      6.22532716      3.10365584
H      -0.10227987      4.42743343      4.76859310
H      -0.82525877      2.15877293      4.04628576
H       2.71944084     -0.19136779      1.01660590
H       2.61062024     -1.31097209      2.31793382
H       1.63772699      1.11483531      2.59560422
H       0.17046996      0.35454968      4.26498473
H      -0.28128686     -1.16432863      3.36984681
H       1.32520762     -0.97756218      4.09303967
H      -1.68059373      0.55048990     -1.07820871
H       2.04759485     -3.49736454      0.91461397
H      -3.06491493     -0.04287800     -2.85870121
H      -1.17086441     -4.09382488     -2.61774631
H       0.50216175     -4.54902456     -0.80483193
H      -2.76659549     -2.58254033     -3.74658647
