#! For torsiondrive scan
memory 30 GB

molecule {
 C                 -2.38160038   -0.57625167    0.23356188
 C                 -3.03441056   -1.57783519    0.94797085
 C                 -4.39223122   -1.79679377    0.79758797
 C                 -5.13366869   -0.99592068   -0.05714794
 C                 -4.52082930    0.05351515   -0.71721782
 C                 -3.15974574    0.27174553   -0.55757980
 S                 -2.40605199    1.68702693   -1.33818066
 C                 -1.28450455    2.11961406   -0.02139987
 C                 -1.04515128    3.45330902    0.27452359
 C                 -0.17173893    3.78333656    1.29640973
 C                  0.44256412    2.78246451    2.03357918
 C                  0.20376741    1.45403846    1.73137148
 C                 -0.63808503    1.10277030    0.68200647
 C                 -0.91809112   -0.30860591    0.32318979
 C                  0.01874117   -1.23427407    0.05931723
 C                  1.50194458   -1.12710486    0.08726889
 C                  2.39204611   -0.08087099   -0.29243176
 C                  1.99147582    1.09475037   -0.96793164
 C                  2.90085540    2.04606911   -1.32941835
 C                  4.26675481    1.88227229   -1.03316671
 C                  4.69382287    0.74142198   -0.42138461
 C                  3.78159226   -0.27821505   -0.06242411
 C                  4.24390041   -1.50842362    0.46474854
 C                  3.38216283   -2.53855891    0.69822092
 C                  2.00950471   -2.34489064    0.48176100
 C                  0.92065178   -3.37391511    0.59477115
 C                 -0.24775895   -2.71780565   -0.16838944
 C                 -0.22412965   -3.06456373   -1.65733439
 H                 -2.46997600   -2.18712596    1.64046101
 H                 -4.87442741   -2.58802333    1.35686737
 H                 -6.19580038   -1.16307983   -0.18013085
 H                 -5.10147565    0.72523894   -1.33611911
 H                 -1.55842142    4.22779290   -0.28063185
 H                  0.01203666    4.82396244    1.53030994
 H                  1.11097808    3.03818080    2.84526599
 H                  0.68772453    0.67138852    2.30052265
 H                  0.64918328   -3.54943716    1.64043392
 H                  1.21492296   -4.33448502    0.16777410
 H                 -1.20203614   -3.03093755    0.23757534
 H                  0.72797059   -2.78717441   -2.11243346
 H                 -0.37080602   -4.13661346   -1.80121108
 H                 -1.01821109   -2.53889562   -2.18829245
 H                  0.95140078    1.22864062   -1.21956285
 H                  3.74810150   -3.49858068    1.04150165
 H                  2.56872852    2.93298500   -1.85357812
 H                  5.74728573    0.58695753   -0.22056768
 H                  5.30707487   -1.63203597    0.63262187
 H                  4.97554512    2.65114627   -1.31268911
}

set {
basis dzvp
scf_type df
reference uks
}

set_num_threads(4)

gradient('b3lyp-D3BJ')
