#! For torsiondrive scan
memory 30 GB

molecule {
 C                  0.51458963    2.46430438    0.43259967
 C                  0.27440341    3.84396151    0.52421279
 C                  1.31406711    4.76482674    0.41968231
 C                  2.62493050    4.31975112    0.24357588
 C                  2.90181407    2.95508790    0.22165861
 C                  1.85616965    2.03569403    0.33340755
 N                  2.09898393    0.62712537    0.43952825
 C                  1.28195766   -0.04770796    1.40438532
 C                  1.80040641   -0.97925936    2.30715047
 C                  0.96924401   -1.53366076    3.27768890
 C                 -0.36904247   -1.14156451    3.36714908
 C                 -0.87964517   -0.20454628    2.47380639
 C                 -0.06895542    0.33969222    1.46841778
 C                 -0.51931561    1.38877168    0.51904338
 C                 -1.67046265    1.35477691   -0.20697846
 C                 -2.73153830    0.31138531   -0.27023871
 C                 -2.68129922   -1.12225319   -0.21159370
 C                 -1.48183613   -1.88314169   -0.21395367
 C                 -1.50916219   -3.26035410   -0.17952202
 C                 -2.73747615   -3.95808386   -0.13792678
 C                 -3.92003899   -3.25662390   -0.17825536
 C                 -3.92932030   -1.83736417   -0.24386783
 C                 -5.15278748   -1.12918580   -0.39773241
 C                 -5.16165622    0.23402275   -0.58291405
 C                 -3.94475052    0.94235829   -0.54143512
 C                 -3.74033254    2.41431988   -0.80068120
 C                 -2.21332052    2.50794152   -1.06163737
 C                 -1.86835725    2.31998978   -2.55065993
 H                 -0.73253818    4.19882240    0.70964402
 H                  1.10088185    5.82738771    0.48765082
 H                  3.43915410    5.03276978    0.15700703
 H                  3.91663813    2.59545789    0.11779756
 H                  2.84438321   -1.26098241    2.24655555
 H                  1.37426503   -2.25706661    3.97895600
 H                 -1.00992952   -1.56008554    4.13709841
 H                 -1.91457198    0.11281181    2.54337349
 H                 -4.01831551    3.01675238    0.07563135
 H                 -4.33922725    2.77719728   -1.64385663
 H                 -1.82877762    3.47508806   -0.74807582
 H                 -2.25505120    1.36905064   -2.93060126
 H                 -2.30246647    3.12838684   -3.14921179
 H                 -0.78484139    2.33037181   -2.70090398
 H                 -0.53017620   -1.37207791   -0.26357528
 H                 -6.09361186    0.76289579   -0.76346362
 H                 -0.57508108   -3.81463753   -0.18581253
 H                 -4.87216415   -3.78111886   -0.18404651
 H                 -6.08093045   -1.69446244   -0.41649125
 H                 -2.74451291   -5.04332537   -0.09645867
 C                  2.95540155   -0.00702016   -0.45698749
 O                  3.65714239    0.59029226   -1.25344022
 O                  2.88115674   -1.34691928   -0.32233098
 C                  3.69965736   -2.23757369   -1.16871168
 C                  3.31898621   -2.05574916   -2.64116091
 C                  5.18846121   -1.98242082   -0.91430697
 C                  3.29267216   -3.62643989   -0.67109158
 H                  2.24215921   -2.19782716   -2.77491679
 H                  3.59247163   -1.06303971   -2.99805610
 H                  3.83803798   -2.80562186   -3.24679168
 H                  5.41605162   -2.08312704    0.15171740
 H                  5.78336884   -2.72323692   -1.45798374
 H                  5.47850803   -0.98588185   -1.24697316
 H                  3.83534319   -4.39654089   -1.22702394
 H                  3.52061933   -3.74087161    0.39236576
 H                  2.22025037   -3.78755861   -0.81282033
}

set {
basis 3-21G
scf_type df
reference uks
}

set_num_threads(4)

gradient('b3lyp-D3BJ')
