%chk=D:\study\O.chk
#p opt=calcfc freq rb3lyp/6-31g(d,p) geom=connectivity scf=maxcycle=500

motor

0 1
 C                 -2.46352176   -0.51114884    0.06536427
 C                 -3.21274316   -1.69451869    0.22114832
 C                 -4.53944071   -1.79384002   -0.18859161
 C                 -5.17893328   -0.70199212   -0.77798921
 C                 -4.48712411    0.49490070   -0.91842415
 C                 -3.16448969    0.58590425   -0.48629823
 O                 -2.58093689    1.82418309   -0.64565927
 C                 -1.53957645    2.12911300    0.19891554
 C                 -1.32916946    3.47566764    0.49257763
 C                 -0.31571057    3.82355059    1.38044603
 C                  0.45976529    2.82538167    1.97985735
 C                  0.24460130    1.48898813    1.66089404
 C                 -0.73754192    1.10891077    0.72931933
 C                 -1.01469488   -0.29986782    0.35533689
 C                 -0.02522546   -1.24608542    0.26559394
 C                  1.44420852   -1.04685648    0.18672798
 C                  2.23011862   -0.01696559   -0.43795888
 C                  1.68946173    1.03537287   -1.22228745
 C                  2.50209790    1.97877642   -1.81305489
 C                  3.90438823    1.92744485   -1.64706757
 C                  4.46756858    0.89843163   -0.92817615
 C                  3.66110726   -0.10801862   -0.33236798
 C                  4.25912308   -1.22574413    0.31316256
 C                  3.48834329   -2.26303144    0.78525073
 C                  2.08550498   -2.17454805    0.69584715
 C                  1.08216109   -3.22961058    1.07705989
 C                 -0.21304764   -2.76906433    0.34987554
 C                 -0.36599012   -3.43006453   -1.03089283
 H                 -2.76055993   -2.55991027    0.68094718
 H                 -5.07163691   -2.72938838   -0.04686841
 H                 -6.21028042   -0.77578239   -1.10860195
 H                 -4.94971136    1.37888236   -1.34413066
 H                 -1.97412736    4.21900638    0.03627713
 H                 -0.14644857    4.86849945    1.62186613
 H                  1.23030419    3.09054880    2.69688730
 H                  0.84539412    0.71756460    2.12896253
 H                  0.92046954   -3.25326128    2.16385494
 H                  1.39737659   -4.23602275    0.77848511
 H                 -1.06845332   -3.03240854    0.97006950
 H                  0.50407246   -3.21503349   -1.65948071
 H                 -0.45436467   -4.51768926   -0.93185680
 H                 -1.25638192   -3.06143905   -1.54797718
 H                  0.62008768    1.08096878   -1.37692833
 H                  3.95156676   -3.14445454    1.22045064
 H                  2.05924815    2.76688533   -2.41492294
 H                  5.54714682    0.82567244   -0.82366612
 H                  5.34301315   -1.26791224    0.38113066
 H                  4.53333614    2.68529417   -2.10483323

 1 2 1.5 6 1.5 14 1.0
 2 3 1.5 29 1.0
 3 4 1.5 30 1.0
 4 5 1.5 31 1.0
 5 6 1.5 32 1.0
 6 7 1.0
 7 8 1.0
 8 9 1.5 13 1.5
 9 10 1.5 33 1.0
 10 11 1.5 34 1.0
 11 12 1.5 35 1.0
 12 13 1.5 36 1.0
 13 14 1.0
 14 15 2.0
 15 16 1.0 27 1.0
 16 17 1.5 25 1.5
 17 18 1.5 22 1.5
 18 19 2.0 43 1.0
 19 20 1.5 45 1.0
 20 21 2.0 48 1.0
 21 22 1.5 46 1.0
 22 23 1.5
 23 24 2.0 47 1.0
 24 25 1.5 44 1.0
 25 26 1.0
 26 27 1.0 37 1.0 38 1.0
 27 28 1.0 39 1.0
 28 40 1.0 41 1.0 42 1.0
 29
 30
 31
 32
 33
 34
 35
 36
 37
 38
 39
 40
 41
 42
 43
 44
 45
 46
 47
 48

