%chk=D:\study\S.chk
#p opt=calcfc freq rb3lyp/6-31g(d,p) geom=connectivity scf=maxcycle=500

motor

0 1
 C                 -2.38777517   -0.59134555    0.22208040
 C                 -3.03526390   -1.61520410    0.93358779
 C                 -4.39931775   -1.85468160    0.78129800
 C                 -5.15970394   -1.04993686   -0.06907850
 C                 -4.55952793    0.02517126   -0.72022461
 C                 -3.19088071    0.26405097   -0.56037041
 S                 -2.46528191    1.70709812   -1.32707683
 C                 -1.32598858    2.13753413   -0.01811425
 C                 -1.09978589    3.48175130    0.29199964
 C                 -0.21228117    3.81656844    1.31350418
 C                  0.42900807    2.80977752    2.03853262
 C                  0.20276847    1.47175911    1.72498345
 C                 -0.65160739    1.11160327    0.67263448
 C                 -0.92143199   -0.30763405    0.31440062
 C                  0.03737258   -1.24263195    0.07085253
 C                  1.52285494   -1.12504331    0.09098903
 C                  2.41434693   -0.06972083   -0.29685434
 C                  2.00807249    1.11308413   -0.96927596
 C                  2.92245984    2.07610725   -1.33644168
 C                  4.29668324    1.91349922   -1.04835150
 C                  4.73314460    0.76100298   -0.43714043
 C                  3.82156339   -0.26615164   -0.07294154
 C                  4.29320786   -1.50006578    0.45359160
 C                  3.42857395   -2.54282528    0.69409548
 C                  2.04780579   -2.35404506    0.48688927
 C                  0.95863253   -3.39032358    0.61485672
 C                 -0.22507828   -2.73884304   -0.14825935
 C                 -0.21570396   -3.09913140   -1.64543790
 H                 -2.46180563   -2.22065810    1.62717671
 H                 -4.86931785   -2.66119490    1.33598228
 H                 -6.22294474   -1.23179383   -0.19328564
 H                 -5.15255427    0.69878579   -1.33112998
 H                 -1.63164374    4.25629631   -0.25196505
 H                 -0.04071543    4.86092031    1.55662706
 H                  1.10395176    3.06690789    2.84916347
 H                  0.70215260    0.68807283    2.28518873
 H                  0.69089250   -3.56158678    1.66713499
 H                  1.25310980   -4.35948377    0.19615673
 H                 -1.17767972   -3.05890935    0.26733798
 H                  0.73298364   -2.82136283   -2.11531841
 H                 -0.36103944   -4.17658461   -1.78014339
 H                 -1.02015217   -2.57861112   -2.17325361
 H                  0.96388327    1.24548907   -1.21728805
 H                  3.80145044   -3.50461422    1.03577386
 H                  2.58293677    2.96674142   -1.85689305
 H                  5.79162062    0.60637827   -0.24378350
 H                  5.36119372   -1.62096505    0.61538364
 H                  5.00530051    2.68664963   -1.33046748

 1 2 1.5 6 1.5 14 1.0
 2 3 1.5 29 1.0
 3 4 1.5 30 1.0
 4 5 1.5 31 1.0
 5 6 1.5 32 1.0
 6 7 1.0
 7 8 1.0
 8 9 1.5 13 1.5
 9 10 1.5 33 1.0
 10 11 1.5 34 1.0
 11 12 1.5 35 1.0
 12 13 1.5 36 1.0
 13 14 1.0
 14 15 2.0
 15 16 1.0 27 1.0
 16 17 1.5 25 1.5
 17 18 1.5 22 1.5
 18 19 2.0 43 1.0
 19 20 1.5 45 1.0
 20 21 2.0 48 1.0
 21 22 1.5 46 1.0
 22 23 1.5
 23 24 2.0 47 1.0
 24 25 1.5 44 1.0
 25 26 1.0
 26 27 1.0 37 1.0 38 1.0
 27 28 1.0 39 1.0
 28 40 1.0 41 1.0 42 1.0
 29
 30
 31
 32
 33
 34
 35
 36
 37
 38
 39
 40
 41
 42
 43
 44
 45
 46
 47
 48

